p cnf 50 450
1 -50 -48 0
1 -50 -32 0
1 -50 -27 0
1 -50 -25 0
1 -50 -17 0
1 -50 4 0
1 -50 21 0
1 -50 38 0
1 -50 48 0
1 -49 -35 0
1 -49 -32 0
1 -49 -30 0
1 -49 -26 0
1 -49 -22 0
1 -49 -12 0
1 -49 8 0
1 -49 17 0
1 -49 25 0
1 -48 -44 0
1 -48 -28 0
1 -48 -14 0
1 -48 -5 0
1 -48 11 0
1 -48 18 0
1 -48 34 0
1 -48 50 0
1 -47 -34 0
1 -47 -10 0
1 -47 -4 0
1 -47 8 0
1 -47 14 0
1 -47 24 0
1 -47 27 0
1 -47 41 0
1 -47 43 0
1 -46 -36 0
1 -46 -13 0
1 -46 -12 0
1 -46 -11 0
1 -46 5 0
1 -46 7 0
1 -46 10 0
1 -46 11 0
1 -46 27 0
1 -45 -31 0
1 -45 -10 0
1 -45 11 0
1 -45 14 0
1 -45 15 0
1 -45 23 0
1 -45 33 0
1 -45 39 0
1 -45 46 0
1 -44 -22 0
1 -44 -6 0
1 -44 24 0
1 -44 35 0
1 -44 39 0
1 -44 41 0
1 -44 42 0
1 -44 45 0
1 -43 -41 0
1 -43 -40 0
1 -43 -13 0
1 -43 18 0
1 -43 28 0
1 -43 33 0
1 -43 37 0
1 -43 44 0
1 -43 50 0
1 -42 -41 0
1 -42 -40 0
1 -42 -37 0
1 -42 -21 0
1 -42 13 0
1 -42 18 0
1 -42 19 0
1 -42 26 0
1 -42 34 0
1 -41 -35 0
1 -41 -29 0
1 -41 -21 0
1 -41 -20 0
1 -41 -15 0
1 -41 15 0
1 -41 35 0
1 -40 -14 0
1 -40 -6 0
1 -40 7 0
1 -40 20 0
1 -40 28 0
1 -40 31 0
1 -40 46 0
1 -39 -36 0
1 -39 -33 0
1 -39 -16 0
1 -39 -15 0
1 -39 -5 0
1 -39 7 0
1 -39 9 0
1 -39 33 0
1 -39 41 0
1 -38 -32 0
1 -38 -13 0
1 -38 3 0
1 -38 8 0
1 -38 10 0
1 -38 12 0
1 -38 24 0
1 -38 31 0
1 -38 42 0
1 -37 -23 0
1 -37 -12 0
1 -37 8 0
1 -37 15 0
1 -37 16 0
1 -37 26 0
1 -37 27 0
1 -37 50 0
1 -36 -14 0
1 -36 15 0
1 -36 16 0
1 -36 32 0
1 -36 41 0
1 -36 45 0
1 -36 48 0
1 -35 -34 0
1 -35 -23 0
1 -35 4 0
1 -35 21 0
1 -35 24 0
1 -35 29 0
1 -35 41 0
1 -34 -29 0
1 -34 8 0
1 -34 19 0
1 -34 22 0
1 -34 35 0
1 -34 38 0
1 -34 42 0
1 -33 -12 0
1 -33 -6 0
1 -33 7 0
1 -33 24 0
1 -33 25 0
1 -33 32 0
1 -33 40 0
1 -33 41 0
1 -32 -24 0
1 -32 3 0
1 -32 30 0
1 -32 36 0
1 -32 42 0
1 -32 43 0
1 -31 -23 0
1 -31 -17 0
1 -31 -3 0
1 -31 16 0
1 -31 20 0
1 -31 22 0
1 -31 28 0
1 -31 36 0
1 -30 -28 0
1 -30 -13 0
1 -30 -9 0
1 -30 3 0
1 -30 5 0
1 -30 31 0
1 -30 37 0
1 -30 46 0
1 -29 -27 0
1 -29 13 0
1 -29 26 0
1 -29 34 0
1 -29 39 0
1 -29 42 0
1 -29 49 0
1 -28 -26 0
1 -28 -13 0
1 -28 -11 0
1 -28 -3 0
1 -28 35 0
1 -28 41 0
1 -28 49 0
1 -27 -26 0
1 -27 -22 0
1 -27 -20 0
1 -27 -3 0
1 -27 1 0
1 -27 4 0
1 -27 36 0
1 -26 -16 0
1 -26 -11 0
1 -26 -9 0
1 -26 -7 0
1 -26 29 0
1 -26 32 0
1 -25 -20 0
1 -25 -17 0
1 -25 -14 0
1 -25 -12 0
1 -25 -4 0
1 -25 -2 0
1 -25 1 0
1 -25 17 0
1 -24 -18 0
1 -24 -15 0
1 -24 10 0
1 -24 11 0
1 -24 38 0
1 -24 44 0
1 -24 45 0
1 -24 48 0
1 -23 -12 0
1 -23 10 0
1 -23 25 0
1 -23 31 0
1 -23 36 0
1 -23 39 0
1 -22 -21 0
1 -22 -18 0
1 -22 16 0
1 -22 18 0
1 -22 27 0
1 -22 44 0
1 -21 -15 0
1 -21 -1 0
1 -21 17 0
1 -21 29 0
1 -21 43 0
1 -21 46 0
1 -20 -10 0
1 -20 -8 0
1 -20 2 0
1 -20 5 0
1 -20 27 0
1 -20 49 0
1 -19 -18 0
1 -19 -17 0
1 -19 -8 0
1 -19 13 0
1 -19 24 0
1 -19 25 0
1 -19 34 0
1 -19 46 0
1 -19 47 0
1 -18 7 0
1 -18 8 0
1 -18 12 0
1 -18 16 0
1 -18 21 0
1 -18 49 0
1 -17 -14 0
1 -17 -4 0
1 -17 -1 0
1 -17 13 0
1 -17 48 0
1 -16 -14 0
1 -16 -6 0
1 -16 5 0
1 -16 19 0
1 -16 28 0
1 -16 41 0
1 -16 47 0
1 -15 -14 0
1 -15 -4 0
1 -15 -1 0
1 -15 6 0
1 -15 38 0
1 -14 -7 0
1 -14 31 0
1 -13 -1 0
1 -13 7 0
1 -13 9 0
1 -13 34 0
1 -12 -6 0
1 -12 14 0
1 -12 26 0
1 -11 -9 0
1 -11 -6 0
1 -11 6 0
1 -11 10 0
1 -11 35 0
1 -11 49 0
1 -10 4 0
1 -10 9 0
1 -10 11 0
1 -10 13 0
1 -10 15 0
1 -10 19 0
1 -9 5 0
1 -9 14 0
1 -9 23 0
1 -9 26 0
1 -9 45 0
1 -9 47 0
1 -8 -5 0
1 -8 -2 0
1 -8 15 0
1 -8 20 0
1 -8 30 0
1 -8 33 0
1 -8 49 0
1 -7 -2 0
1 -7 2 0
1 -7 9 0
1 -7 30 0
1 -7 35 0
1 -7 36 0
1 -7 40 0
1 -6 25 0
1 -6 36 0
1 -6 50 0
1 -5 2 0
1 -5 9 0
1 -5 12 0
1 -5 19 0
1 -5 32 0
1 -5 41 0
1 -4 14 0
1 -4 18 0
1 -4 30 0
1 -4 32 0
1 -4 35 0
1 -3 2 0
1 -3 10 0
1 -3 14 0
1 -3 31 0
1 -3 32 0
1 -3 48 0
1 -2 10 0
1 -2 11 0
1 -2 20 0
1 -2 29 0
1 -2 43 0
1 -2 47 0
1 -1 25 0
1 -1 34 0
1 -1 37 0
1 -1 45 0
1 -1 50 0
1 1 15 0
1 1 18 0
1 1 33 0
1 1 40 0
1 1 42 0
1 1 46 0
1 1 47 0
1 2 3 0
1 2 15 0
1 2 22 0
1 2 23 0
1 2 37 0
1 3 8 0
1 3 24 0
1 3 34 0
1 3 40 0
1 3 45 0
1 4 9 0
1 4 11 0
1 4 34 0
1 4 47 0
1 4 50 0
1 5 10 0
1 5 11 0
1 5 21 0
1 5 29 0
1 6 17 0
1 6 18 0
1 6 22 0
1 6 24 0
1 6 31 0
1 6 40 0
1 6 50 0
1 7 23 0
1 7 35 0
1 7 44 0
1 8 19 0
1 8 48 0
1 9 23 0
1 9 29 0
1 9 43 0
1 10 48 0
1 11 28 0
1 12 21 0
1 12 30 0
1 12 31 0
1 12 40 0
1 12 43 0
1 12 44 0
1 13 18 0
1 13 23 0
1 13 27 0
1 13 47 0
1 14 21 0
1 14 22 0
1 14 50 0
1 15 30 0
1 16 27 0
1 16 30 0
1 16 47 0
1 16 50 0
1 17 18 0
1 17 23 0
1 17 27 0
1 17 33 0
1 17 39 0
1 19 28 0
1 19 39 0
1 19 43 0
1 20 24 0
1 20 36 0
1 20 38 0
1 20 39 0
1 20 44 0
1 21 29 0
1 21 38 0
1 21 49 0
1 22 26 0
1 22 30 0
1 22 33 0
1 22 40 0
1 23 25 0
1 23 33 0
1 25 40 0
1 25 42 0
1 26 36 0
1 26 37 0
1 26 45 0
1 27 49 0
1 28 31 0
1 28 38 0
1 28 46 0
1 29 44 0
1 29 47 0
1 30 38 0
1 32 35 0
1 32 39 0
1 32 40 0
1 33 48 0
1 34 46 0
1 36 43 0
1 37 39 0
1 37 42 0
1 37 44 0
1 37 45 0
1 38 45 0
1 42 46 0
1 43 49 0
1 44 48 0
